c Sudoku solution
p cnf 729 0
121 0
133 0
144 0
162 0
175 0
249 0
277 0
292 0
314 0
284 0
327 0
332 0
119 0
157 0
526 0
531 0
568 0
618 0
642 0
665 0
681 0
696 0
637 0
198 0
186 0
791 0
371 0
815 0
911 0
717 0
216 0
836 0
848 0
441 0
358 0
345 0
366 0
456 0
864 0
851 0
253 0
261 0
882 0
897 0
946 0
743 0
769 0
967 0
776 0
547 0
463 0
412 0
513 0
572 0
487 0
478 0
673 0
879 0
823 0
974 0
955 0
752 0
922 0
939 0
785 0
993 0
988 0
383 0
399 0
589 0
429 0
435 0
624 0
494 0
595 0
554 0
659 0
728 0
734 0
225 0
238 0
